     Program PWSCF v.7.1 starts on 12Jan2023 at 16: 3:40

     Reading input from input.pwi
Warning: card &CELL ignored
Warning: card / ignored

     Current dimensions of program PWSCF are:
     Max number of different atomic species (ntypx) = 10
     Max number of k-points (npk) =  40000
     Max angular momentum in pseudopotentials (lmaxx) =  4
     file C.pbe-n-kjpaw_psl.1.0.0.UPF: wavefunction(s)  2S 2P renormalized

     IMPORTANT: XC functional enforced from input :
     Exchange-correlation= PBE
                           (   1   4   3   4   0   0   0)
     Any further DFT definition will be discarded
     Please, verify this is what you really want

     Message from routine setup:
     using ibrav=0 with symmetry is DISCOURAGED, use correct ibrav instead

     Subspace diagonalization in iterative solution of the eigenvalue problem:
     a serial algorithm will be used

     Using Slab Decomposition

     Title:
     Title

     bravais-lattice index     =            0
     lattice parameter (alat)  =       4.1574  a.u.
     unit-cell volume          =     192.3453 (a.u.)^3
     number of atoms/cell      =            4
     number of atomic types    =            1
     number of electrons       =        16.00
     number of Kohn-Sham states=           12
     kinetic-energy cutoff     =      30.0000  Ry
     charge density cutoff     =     120.0000  Ry
     scf convergence threshold =      1.0E-06
     mixing beta               =       0.7000
     number of iterations used =            8  plain     mixing
     Exchange-correlation= PBE
                           (   1   4   3   4   0   0   0)

     celldm(1)=   4.157397  celldm(2)=   0.000000  celldm(3)=   0.000000
     celldm(4)=   0.000000  celldm(5)=   0.000000  celldm(6)=   0.000000

     crystal axes: (cart. coord. in units of alat)
               a(1) = (   1.000000   0.000000   0.000000 )
               a(2) = (  -0.500000   0.866025   0.000000 )
               a(3) = (   0.000000   0.000000   3.090909 )

     reciprocal axes: (cart. coord. in units 2 pi/alat)
               b(1) = (  1.000000  0.577350  0.000000 )
               b(2) = (  0.000000  1.154701  0.000000 )
               b(3) = (  0.000000  0.000000  0.323529 )

     PseudoPot. # 1 for C  read from file:
     /home/ws/gt5111/Celso_QE/SSSP_precision/C.pbe-n-kjpaw_psl.1.0.0.UPF
     MD5 check sum: 5d2aebdfa2cae82b50a7e79e9516da0f
     Pseudo is Projector augmented-wave + core cor, Zval =  4.0
     Generated using "atomic" code by A. Dal Corso  v.5.1
     Shape of augmentation charge: PSQ
     Using radial grid of 1073 points,  4 beta functions with:
                l(1) =   0
                l(2) =   0
                l(3) =   1
                l(4) =   1
     Q(r) pseudized with 0 coefficients

     atomic species   valence    mass     pseudopotential
        C              4.00    12.01100     C ( 1.00)

     Starting magnetic structure
     atomic species   magnetization
        C            0.500

      8 Sym. Ops., with inversion, found ( 4 have fractional translation)

   Cartesian axes

     site n.     atom                  positions (alat units)
         1           C   tau(   1) = (   0.0000000   0.0000000   0.7727273  )
         2           C   tau(   2) = (   0.0000000   0.0000000   2.3181818  )
         3           C   tau(   3) = (  -0.0000050   0.5773532   0.7727273  )
         4           C   tau(   4) = (   0.5000050   0.2886722   2.3181818  )

     number of k points=    21  Marzari-Vanderbilt smearing, width (Ry)=  0.0100
                       cart. coord. in units 2pi/alat
        k(    1) = (   0.0000000   0.0000000   0.0000000), wk =   0.0156250
        k(    2) = (   0.0000000   0.0000000   0.0808824), wk =   0.0312500
        k(    3) = (   0.0000000   0.0000000  -0.1617647), wk =   0.0156250
        k(    4) = (   0.0000000   0.2886751   0.0000000), wk =   0.0625000
        k(    5) = (   0.0000000   0.2886751   0.0808824), wk =   0.1250000
        k(    6) = (   0.0000000   0.2886751  -0.1617647), wk =   0.0625000
        k(    7) = (   0.0000000  -0.5773503   0.0000000), wk =   0.0312500
        k(    8) = (   0.0000000  -0.5773503   0.0808824), wk =   0.0625000
        k(    9) = (   0.0000000  -0.5773503  -0.1617647), wk =   0.0312500
        k(   10) = (   0.2500000   0.4330127   0.0000000), wk =   0.0312500
        k(   11) = (   0.2500000   0.4330127   0.0808824), wk =   0.0625000
        k(   12) = (   0.2500000   0.4330127  -0.1617647), wk =   0.0312500
        k(   13) = (   0.2500000  -0.1443376   0.0000000), wk =   0.0312500
        k(   14) = (   0.2500000  -0.1443376  -0.0808824), wk =   0.0625000
        k(   15) = (   0.2500000  -0.1443376   0.1617647), wk =   0.0312500
        k(   16) = (  -0.5000000   0.2886751   0.0000000), wk =   0.0156250
        k(   17) = (  -0.5000000   0.2886751  -0.0808824), wk =   0.0312500
        k(   18) = (  -0.5000000   0.2886751   0.1617647), wk =   0.0156250
        k(   19) = (  -0.2500000   0.4330127   0.0000000), wk =   0.0625000
        k(   20) = (  -0.2500000   0.4330127  -0.0808824), wk =   0.1250000
        k(   21) = (  -0.2500000   0.4330127   0.1617647), wk =   0.0625000

     Check: negative core charge=   -0.000572
     Generating pointlists ...
     new r_m :   0.2382 (alat units)  0.9901 (a.u.) for type    1

     Initial potential from superposition of free atoms

     starting charge      15.9998, renormalised to      16.0000
     Starting wfcs are   16 randomized atomic wfcs
     Checking if some PAW data can be deallocated...

     Self-consistent Calculation

     iteration #  1     ecut=    30.00 Ry     beta= 0.70
     CG style diagonalization
     ethr =  1.00E-02,  avg # of iterations =  3.4

     total energy              =     -73.25169515 Ry
     estimated scf accuracy    <       1.08420463 Ry

     total magnetization       =    -0.00 Bohr mag/cell
     absolute magnetization    =     0.12 Bohr mag/cell

[...]

     iteration #  3     ecut=    30.00 Ry     beta= 0.70
     CG style diagonalization
     ethr =  1.57E-04,  avg # of iterations =  3.8

[...]

     iteration #  4     ecut=    30.00 Ry     beta= 0.70
     CG style diagonalization
     c_bands:  1 eigenvalues not converged
     ethr =  1.20E-05,  avg # of iterations =  3.6

     total energy              =     -73.44908675 Ry
     estimated scf accuracy    <       0.00000381 Ry

[...]

     iteration #  5     ecut=    30.00 Ry     beta= 0.70
     CG style diagonalization
     c_bands:  1 eigenvalues not converged
     ethr =  2.38E-08,  avg # of iterations =  4.2

     Magnetic moment per site  (integrated on atomic sphere of radius R)
     1 (R=0.238)  charge=  1.5353  magn= -0.0000
     2 (R=0.238)  charge=  1.5353  magn= -0.0000
     3 (R=0.238)  charge=  1.5357  magn=  0.0000
     4 (R=0.238)  charge=  1.5357  magn=  0.0000

     End of self-consistent calculation

 ------ SPIN UP ------------

          k = 0.0000 0.0000 0.0000 (   563 PWs)   bands (ev):

   -12.8738 -12.6444  -1.2853   0.3360   6.9934   6.9940   7.0162   7.0168
    12.2759  20.5834  20.6348  20.6354

[...]

          k =-0.5000 0.2887 0.0000 (   542 PWs)   bands (ev):

[...]

 ------ SPIN DOWN ----------

[...]

          k = 0.2500-0.1443 0.1618 (   532 PWs)   bands (ev):

[...]

          k =-0.2500 0.4330 0.1618 (   536 PWs)   bands (ev):

    -7.5388  -7.5388  -1.5611  -1.5611  -1.0089  -1.0089   5.9794   5.9794
    13.4930  13.4930  20.5452  20.5452

     the Fermi energy is     9.2626 ev

!    total energy              =     -73.44909269 Ry
     total all-electron energy =      -304.505484 Ry
     estimated scf accuracy    <       0.00000032 Ry
     smearing contrib. (-TS)   =       0.00000000 Ry
     internal energy E=F+TS    =     -73.44909269 Ry

     The total energy is F=E-TS. E is the sum of the following terms:
     one-electron contribution =     -15.70212787 Ry
     hartree contribution      =      17.73794338 Ry
     xc contribution           =     -19.68618666 Ry
     ewald contribution        =     -31.06800336 Ry
     one-center paw contrib.   =     -24.73071819 Ry

     total magnetization       =    -0.00 Bohr mag/cell
     absolute magnetization    =     0.00 Bohr mag/cell

     convergence has been achieved in   5 iterations

     Writing all to output data dir ./Title.save/

     General routines

     Parallel routines

   This run was terminated on:  16: 3:44  12Jan2023

   JOB DONE.