     Program PWSCF v.7.1 starts on 10Jan2023 at 14:25:30

     Reading input from input.pwi
Warning: card &CELL ignored
Warning: card / ignored

     Current dimensions of program PWSCF are:
     Max number of different atomic species (ntypx) = 10
     Max number of k-points (npk) =  40000
     Max angular momentum in pseudopotentials (lmaxx) =  4
     file C.pbe-n-kjpaw_psl.1.0.0.UPF: wavefunction(s)  2S 2P renormalized

     IMPORTANT: XC functional enforced from input :
     Exchange-correlation= PBE
                           (   1   4   3   4   0   0   0)
     Any further DFT definition will be discarded
     Please, verify this is what you really want

     Message from routine setup:
     using ibrav=0 with symmetry is DISCOURAGED, use correct ibrav instead

     Subspace diagonalization in iterative solution of the eigenvalue problem:
     a serial algorithm will be used

     Using Slab Decomposition

     Title:
     Title

     bravais-lattice index     =            0
     lattice parameter (alat)  =       4.1574  a.u.
     unit-cell volume          =     192.3453 (a.u.)^3
     number of atoms/cell      =            4
     number of atomic types    =            1
     number of electrons       =        16.00
     number of Kohn-Sham states=            8
     kinetic-energy cutoff     =      30.0000  Ry
     charge density cutoff     =     120.0000  Ry
     scf convergence threshold =      1.0E-06
     mixing beta               =       0.7000
     number of iterations used =            8  plain     mixing
     energy convergence thresh.=      1.0E-04
     force convergence thresh. =      1.0E-03
     Exchange-correlation= PBE
                           (   1   4   3   4   0   0   0)
     nstep                     =          200

     celldm(1)=   4.157397  celldm(2)=   0.000000  celldm(3)=   0.000000
     celldm(4)=   0.000000  celldm(5)=   0.000000  celldm(6)=   0.000000

     crystal axes: (cart. coord. in units of alat)
               a(1) = (   1.000000   0.000000   0.000000 )
               a(2) = (  -0.500000   0.866025   0.000000 )
               a(3) = (   0.000000   0.000000   3.090909 )

     reciprocal axes: (cart. coord. in units 2 pi/alat)
               b(1) = (  1.000000  0.577350  0.000000 )
               b(2) = (  0.000000  1.154701  0.000000 )
               b(3) = (  0.000000  0.000000  0.323529 )

     PseudoPot. # 1 for C  read from file:
     /home/ws/gt5111/Celso_QE/SSSP_precision/C.pbe-n-kjpaw_psl.1.0.0.UPF
     MD5 check sum: 5d2aebdfa2cae82b50a7e79e9516da0f
     Pseudo is Projector augmented-wave + core cor, Zval =  4.0
     Generated using "atomic" code by A. Dal Corso  v.5.1
     Shape of augmentation charge: PSQ
     Using radial grid of 1073 points,  4 beta functions with:
                l(1) =   0
                l(2) =   0
                l(3) =   1
                l(4) =   1
     Q(r) pseudized with 0 coefficients

     atomic species   valence    mass     pseudopotential
        C              4.00    12.01100     C ( 1.00)

      8 Sym. Ops., with inversion, found ( 4 have fractional translation)

   Cartesian axes

     site n.     atom                  positions (alat units)
         1           C   tau(   1) = (   0.0000000   0.0000000   0.7727273  )
         2           C   tau(   2) = (   0.0000000   0.0000000   2.3181818  )
         3           C   tau(   3) = (  -0.0000050   0.5773532   0.7727273  )
         4           C   tau(   4) = (   0.5000050   0.2886722   2.3181818  )

     number of k points=    21
                       cart. coord. in units 2pi/alat
        k(    1) = (   0.0000000   0.0000000   0.0000000), wk =   0.0312500
        k(    2) = (   0.0000000   0.0000000   0.0808824), wk =   0.0625000
        k(    3) = (   0.0000000   0.0000000  -0.1617647), wk =   0.0312500
        k(    4) = (   0.0000000   0.2886751   0.0000000), wk =   0.1250000
        k(    5) = (   0.0000000   0.2886751   0.0808824), wk =   0.2500000
        k(    6) = (   0.0000000   0.2886751  -0.1617647), wk =   0.1250000
        k(    7) = (   0.0000000  -0.5773503   0.0000000), wk =   0.0625000
        k(    8) = (   0.0000000  -0.5773503   0.0808824), wk =   0.1250000
        k(    9) = (   0.0000000  -0.5773503  -0.1617647), wk =   0.0625000
        k(   10) = (   0.2500000   0.4330127   0.0000000), wk =   0.0625000
        k(   11) = (   0.2500000   0.4330127   0.0808824), wk =   0.1250000
        k(   12) = (   0.2500000   0.4330127  -0.1617647), wk =   0.0625000
        k(   13) = (   0.2500000  -0.1443376   0.0000000), wk =   0.0625000
        k(   14) = (   0.2500000  -0.1443376  -0.0808824), wk =   0.1250000
        k(   15) = (   0.2500000  -0.1443376   0.1617647), wk =   0.0625000
        k(   16) = (  -0.5000000   0.2886751   0.0000000), wk =   0.0312500
        k(   17) = (  -0.5000000   0.2886751  -0.0808824), wk =   0.0625000
        k(   18) = (  -0.5000000   0.2886751   0.1617647), wk =   0.0312500
        k(   19) = (  -0.2500000   0.4330127   0.0000000), wk =   0.1250000
        k(   20) = (  -0.2500000   0.4330127  -0.0808824), wk =   0.2500000
        k(   21) = (  -0.2500000   0.4330127   0.1617647), wk =   0.1250000

     Check: negative core charge=   -0.000572

     Initial potential from superposition of free atoms

     starting charge      15.9998, renormalised to      16.0000
     Starting wfcs are   16 randomized atomic wfcs
     Checking if some PAW data can be deallocated...

     Self-consistent Calculation

     iteration #  1     ecut=    30.00 Ry     beta= 0.70
     CG style diagonalization
     ethr =  1.00E-02,  avg # of iterations =  3.2

     total energy              =     -73.30318488 Ry
     estimated scf accuracy    <       0.88110888 Ry

[...]

     total energy              =     -73.44909108 Ry
     estimated scf accuracy    <       0.00000116 Ry

     iteration #  5     ecut=    30.00 Ry     beta= 0.70
     CG style diagonalization
     ethr =  7.24E-09,  avg # of iterations =  4.9

     End of self-consistent calculation

          k = 0.0000 0.0000 0.0000 (   563 PWs)   bands (ev):

   -12.8745 -12.6451  -1.2855   0.3360   6.9909   6.9914   7.0137   7.0142

[...]

          k = 0.2500-0.1443 0.1618 (   532 PWs)   bands (ev):

[...]

          k =-0.5000 0.2887 0.0000 (   542 PWs)   bands (ev):

[...]

          k =-0.2500 0.4330 0.1618 (   536 PWs)   bands (ev):

    -7.5405  -7.5405  -1.5625  -1.5625  -1.0105  -1.0105   5.9777   5.9777

     highest occupied level (ev):     7.0201

!    total energy              =     -73.44909408 Ry
     total all-electron energy =      -304.505485 Ry
     estimated scf accuracy    <       0.00000009 Ry

     The total energy is the sum of the following terms:
     one-electron contribution =     -15.70270478 Ry
     hartree contribution      =      17.73869591 Ry
     xc contribution           =     -19.68634624 Ry
     ewald contribution        =     -31.06800336 Ry
     one-center paw contrib.   =     -24.73073562 Ry

     convergence has been achieved in   5 iterations

     Forces acting on atoms (cartesian axes, Ry/au):

     atom    1 type  1   force =    -0.00005086    0.00002937    0.00000000
     atom    2 type  1   force =     0.00005086   -0.00002937    0.00000000
     atom    3 type  1   force =     0.00005414   -0.00003126    0.00000000
     atom    4 type  1   force =    -0.00005414    0.00003126    0.00000000

     Total force =     0.000121     Total SCF correction =     0.000016
     SCF correction compared to forces is large: reduce conv_thr to get better values

     BFGS Geometry Optimization
     Energy error            =      0.0E+00 Ry
     Gradient error          =      5.4E-05 Ry/Bohr

     bfgs converged in   1 scf cycles and   0 bfgs steps
     (criteria: energy <  1.0E-04 Ry, force <  1.0E-03 Ry/Bohr)

     End of BFGS Geometry Optimization

     Final energy             =     -73.4490940832 Ry
Begin final coordinates

ATOMIC_POSITIONS (angstrom)
C             0.0000000000        0.0000000000        1.7000000000
C             0.0000000000        0.0000000000        5.1000000000
C            -0.0000110000        1.2701769431        1.7000000000
C             1.1000110000        0.6350789453        5.1000000000
End final coordinates

     Writing all to output data dir ./Title.save/

     General routines

     Parallel routines

   This run was terminated on:  14:25:31  10Jan2023

   JOB DONE.