     Program PWSCF v.7.1 starts on 12May2023 at 18:25:47

     Reading input from input.pwi
Warning: card &CELL ignored
Warning: card / ignored

     Current dimensions of program PWSCF are:
     Max number of different atomic species (ntypx) = 10
     Max number of k-points (npk) =  40000
     Max angular momentum in pseudopotentials (lmaxx) =  4
     file O.pbe-n-kjpaw_psl.0.1.UPF: wavefunction(s)  2P renormalized

     IMPORTANT: XC functional enforced from input :
     Exchange-correlation= PBE
                           (   1   4   3   4   0   0   0)
     Any further DFT definition will be discarded
     Please, verify this is what you really want

     Message from routine setup:
     using ibrav=0 with symmetry is DISCOURAGED, use correct ibrav instead

     R & G space division:  proc/nbgrp/npool/nimage =      16
     Subspace diagonalization in iterative solution of the eigenvalue problem:
     a serial algorithm will be used

     Using Slab Decomposition

     Title:
     lisa

     bravais-lattice index     =            0
     lattice parameter (alat)  =       9.9702  a.u.
     unit-cell volume          =    1157.8261 (a.u.)^3
     number of atoms/cell      =           18
     number of atomic types    =            4
     number of electrons       =        96.00
     number of Kohn-Sham states=           48
     kinetic-energy cutoff     =      60.0000  Ry
     charge density cutoff     =     240.0000  Ry
     scf convergence threshold =      1.0E-06
     mixing beta               =       0.7000
     number of iterations used =            8  plain     mixing
     energy convergence thresh.=      1.0E-04
     force convergence thresh. =      1.0E-03
     Exchange-correlation= PBE
                           (   1   4   3   4   0   0   0)
     nstep                     =          200

     celldm(1)=   9.970214  celldm(2)=   0.000000  celldm(3)=   0.000000
     celldm(4)=   0.000000  celldm(5)=   0.000000  celldm(6)=   0.000000

     crystal axes: (cart. coord. in units of alat)
               a(1) = (   1.000000   0.000000   0.000000 )
               a(2) = (  -0.500000   0.866025   0.000000 )
               a(3) = (   0.000000   0.000000   1.348961 )

     reciprocal axes: (cart. coord. in units 2 pi/alat)
               b(1) = (  1.000000  0.577350  0.000000 )
               b(2) = (  0.000000  1.154701  0.000000 )
               b(3) = (  0.000000  0.000000  0.741311 )

     PseudoPot. # 1 for Si read from file:
     /shared/software/chem/SSSP/1.1.2_PBE_precision/Si.pbe-n-rrkjus_psl.1.0.0.UPF
     MD5 check sum: 0b0bb1205258b0d07b9f9672cf965d36
     Pseudo is Ultrasoft + core correction, Zval =  4.0
     Generated using "atomic" code by A. Dal Corso  v.5.1
     Using radial grid of 1141 points,  6 beta functions with:
                l(1) =   0
                l(2) =   0
                l(3) =   1
                l(4) =   1
                l(5) =   2
                l(6) =   2
     Q(r) pseudized with 0 coefficients

     PseudoPot. # 2 for Mg read from file:
     /shared/software/chem/SSSP/1.1.2_PBE_precision/mg_pbe_v1.4.uspp.F.UPF
     MD5 check sum: 8ffbd8f729fef71095aac5bd8316fb1f
     Pseudo is Ultrasoft, Zval = 10.0
     Generated by new atomic code, or converted to UPF format
     Using radial grid of  821 points,  7 beta functions with:
                l(1) =   0
                l(2) =   0
                l(3) =   0
                l(4) =   1
                l(5) =   1
                l(6) =   2
                l(7) =   2
     Q(r) pseudized with  8 coefficients,  rinner =    1.200   1.200   1.200
                                                       1.200   1.200

     PseudoPot. # 3 for O  read from file:
     /shared/software/chem/SSSP/1.1.2_PBE_precision/O.pbe-n-kjpaw_psl.0.1.UPF
     MD5 check sum: 0234752ac141de4415c5fc33072bef88
     Pseudo is Projector augmented-wave + core cor, Zval =  6.0
     Generated using "atomic" code by A. Dal Corso  v.5.0.99 svn rev. 10869
     Shape of augmentation charge: BESSEL
     Using radial grid of 1095 points,  4 beta functions with:
                l(1) =   0
                l(2) =   0
                l(3) =   1
                l(4) =   1
     Q(r) pseudized with 0 coefficients

     PseudoPot. # 4 for H  read from file:
     /shared/software/chem/SSSP/1.1.2_PBE_precision/H_ONCV_PBE-1.0.oncvpsp.upf
     MD5 check sum: 1790becc920ee074925cf490c71280fe
     Pseudo is Norm-conserving, Zval =  1.0
     Generated using ONCVPSP code by D. R. Hamann
     Using radial grid of 1166 points,  2 beta functions with:
                l(1) =   0
                l(2) =   0

     atomic species   valence    mass     pseudopotential
        Si             4.00    28.08500     Si( 1.00)
        Mg            10.00    24.30500     Mg( 1.00)
        O              6.00    15.99900     O ( 1.00)
        H              1.00     1.00800     H ( 1.00)

      2 Sym. Ops. (no inversion) found

   Cartesian axes

     site n.     atom                  positions (alat units)
         1           Si  tau(   1) = (  -0.0000050   0.5773532   0.0979615  )
         2           Si  tau(   2) = (   0.5000050   0.2886722   0.0979615  )
         3           Mg  tau(   3) = (   0.3307100   0.0000000   0.6232873  )
         4           Mg  tau(   4) = (  -0.1653550   0.2864033   0.6232873  )
         5           Mg  tau(   5) = (   0.3346450   0.5796221   0.6232873  )
         6           O   tau(   6) = (  -0.0000050   0.5773532   0.3998589  )
         7           O   tau(   7) = (   0.5000050   0.2886722   0.3998589  )
         8           O   tau(   8) = (   0.5223100   0.0000000   1.3279978  )
         9           O   tau(   9) = (  -0.2611550   0.4523337   1.3279978  )
        10           O   tau(  10) = (   0.2388450   0.4136917   1.3279978  )
        11           O   tau(  11) = (   0.6652200   0.0000000   0.8054914  )
        12           O   tau(  12) = (  -0.3326100   0.5760974   0.8054914  )
        13           O   tau(  13) = (   0.1673900   0.2899280   0.8054914  )
        14           O   tau(  14) = (   0.0000000   0.0000000   0.4062665  )
        15           H   tau(  15) = (   0.6471700   0.0000000   0.9900832  )
        16           H   tau(  16) = (  -0.3235850   0.5604657   0.9900832  )
        17           H   tau(  17) = (   0.1764150   0.3055597   0.9900832  )
        18           H   tau(  18) = (   0.0000000   0.0000000   0.2218501  )

     DFT-D3 Dispersion Correction (3-body terms):
       Reference C6 values for interpolation:

         atom   Coordination number   C6
         H          0.912             6.05
         H          0.000            15.18
         O          0.000            31.01
         O          0.993            25.63
         O          1.989            20.74
         Mg         0.000          1366.75
         Mg         0.963           902.54
         Mg         1.950           351.12
         Si         0.000           635.71
         Si         0.951           540.53
         Si         1.944           466.25
         Si         2.941           443.01
         Si         3.868           299.55

       Values used:

         atom   Coordination number  R0_AB[au]  C6      C8
         Si         5.392            3.583    299.55  21425.58
         Si         5.392            3.583    299.55  21425.58
         Mg        11.475            3.292    351.12  31436.69
         Mg        11.475            3.292    351.12  31436.69
         Mg        11.475            3.292    351.12  31436.69
         O          3.896            2.345     20.74    418.58
         O          3.896            2.345     20.74    418.58
         O          2.049            2.345     20.79    419.63
         O          2.049            2.345     20.79    419.63
         O          2.049            2.345     20.79    419.63
         O          3.984            2.345     20.74    418.58
         O          3.984            2.345     20.74    418.58
         O          3.984            2.345     20.74    418.58
         O          3.935            2.345     20.74    418.58
         H          1.127            2.062      6.10     73.79
         H          1.127            2.062      6.10     73.79
         H          1.127            2.062      6.10     73.79
         H          1.072            2.062      6.13     74.10

         Molecular C6 ( Ry / a.u.^6 ) =     18941.48

     number of k points=    68
                       cart. coord. in units 2pi/alat
        k(    1) = (   0.0000000   0.0000000   0.0000000), wk =   0.0092593
        k(    2) = (   0.0000000   0.0000000   0.1235519), wk =   0.0185185
        k(    3) = (   0.0000000   0.0000000   0.2471038), wk =   0.0185185
        k(    4) = (   0.0000000   0.0000000  -0.3706557), wk =   0.0092593
        k(    5) = (   0.0000000   0.1924501   0.0000000), wk =   0.0370370
        k(    6) = (   0.0000000   0.1924501   0.1235519), wk =   0.0370370
        k(    7) = (   0.0000000   0.1924501   0.2471038), wk =   0.0370370
        k(    8) = (   0.0000000   0.1924501  -0.3706557), wk =   0.0370370
        k(    9) = (   0.0000000   0.3849002   0.0000000), wk =   0.0370370
        k(   10) = (   0.0000000   0.3849002   0.1235519), wk =   0.0370370
        k(   11) = (   0.0000000   0.3849002   0.2471038), wk =   0.0370370
        k(   12) = (   0.0000000   0.3849002  -0.3706557), wk =   0.0370370
        k(   13) = (   0.0000000  -0.5773503   0.0000000), wk =   0.0185185
        k(   14) = (   0.0000000  -0.5773503   0.1235519), wk =   0.0370370
        k(   15) = (   0.0000000  -0.5773503   0.2471038), wk =   0.0370370
        k(   16) = (   0.0000000  -0.5773503  -0.3706557), wk =   0.0185185
        k(   17) = (   0.1666667   0.2886751   0.0000000), wk =   0.0185185
        k(   18) = (   0.1666667   0.2886751   0.1235519), wk =   0.0185185
        k(   19) = (   0.1666667   0.2886751   0.2471038), wk =   0.0185185
        k(   20) = (   0.1666667   0.2886751  -0.3706557), wk =   0.0185185
        k(   21) = (   0.1666667   0.4811252   0.0000000), wk =   0.0370370
        k(   22) = (   0.1666667   0.4811252   0.1235519), wk =   0.0370370
        k(   23) = (   0.1666667   0.4811252   0.2471038), wk =   0.0370370
        k(   24) = (   0.1666667   0.4811252  -0.3706557), wk =   0.0370370
        k(   25) = (   0.3333333   0.5773503   0.0000000), wk =   0.0185185
        k(   26) = (   0.3333333   0.5773503   0.1235519), wk =   0.0185185
        k(   27) = (   0.3333333   0.5773503   0.2471038), wk =   0.0185185
        k(   28) = (   0.3333333   0.5773503  -0.3706557), wk =   0.0185185
        k(   29) = (  -0.1666667   0.0962250   0.0000000), wk =   0.0185185
        k(   30) = (   0.0000000   0.1924501  -0.1235519), wk =   0.0370370
        k(   31) = (  -0.1666667   0.0962250   0.1235519), wk =   0.0370370
        k(   32) = (   0.0000000   0.1924501  -0.2471038), wk =   0.0370370
        k(   33) = (  -0.1666667   0.0962250   0.2471038), wk =   0.0370370
        k(   34) = (  -0.1666667   0.0962250  -0.3706557), wk =   0.0185185
        k(   35) = (  -0.3333333   0.1924501   0.0000000), wk =   0.0185185
        k(   36) = (   0.0000000   0.3849002  -0.1235519), wk =   0.0370370
        k(   37) = (  -0.3333333   0.1924501   0.1235519), wk =   0.0370370
        k(   38) = (   0.0000000   0.3849002  -0.2471038), wk =   0.0370370
        k(   39) = (  -0.3333333   0.1924501   0.2471038), wk =   0.0370370
        k(   40) = (  -0.3333333   0.1924501  -0.3706557), wk =   0.0185185
        k(   41) = (   0.5000000  -0.2886751   0.0000000), wk =   0.0092593
        k(   42) = (   0.5000000  -0.2886751   0.1235519), wk =   0.0185185
        k(   43) = (   0.5000000  -0.2886751   0.2471038), wk =   0.0185185
        k(   44) = (   0.5000000  -0.2886751  -0.3706557), wk =   0.0092593
        k(   45) = (  -0.1666667   0.2886751   0.0000000), wk =   0.0370370
        k(   46) = (  -0.1666667   0.2886751  -0.1235519), wk =   0.0370370
        k(   47) = (   0.1666667  -0.2886751  -0.1235519), wk =   0.0370370
        k(   48) = (   0.1666667   0.2886751  -0.1235519), wk =   0.0185185
        k(   49) = (  -0.1666667   0.2886751  -0.2471038), wk =   0.0370370
        k(   50) = (   0.1666667  -0.2886751  -0.2471038), wk =   0.0370370
        k(   51) = (   0.1666667   0.2886751  -0.2471038), wk =   0.0185185
        k(   52) = (  -0.1666667   0.2886751   0.3706557), wk =   0.0370370
        k(   53) = (  -0.1666667   0.4811252   0.0000000), wk =   0.0370370
        k(   54) = (  -0.3333333   0.3849002   0.0000000), wk =   0.0370370
        k(   55) = (  -0.1666667   0.4811252  -0.1235519), wk =   0.0370370
        k(   56) = (   0.1666667  -0.4811252  -0.1235519), wk =   0.0370370
        k(   57) = (  -0.3333333   0.3849002   0.1235519), wk =   0.0370370
        k(   58) = (   0.3333333  -0.3849002   0.1235519), wk =   0.0370370
        k(   59) = (   0.3333333   0.3849002  -0.1235519), wk =   0.0370370
        k(   60) = (  -0.1666667   0.4811252  -0.2471038), wk =   0.0370370
        k(   61) = (   0.1666667  -0.4811252  -0.2471038), wk =   0.0370370
        k(   62) = (  -0.3333333   0.3849002   0.2471038), wk =   0.0370370
        k(   63) = (   0.3333333  -0.3849002   0.2471038), wk =   0.0370370
        k(   64) = (   0.3333333   0.3849002  -0.2471038), wk =   0.0370370
        k(   65) = (  -0.1666667   0.4811252   0.3706557), wk =   0.0370370
        k(   66) = (  -0.3333333   0.3849002  -0.3706557), wk =   0.0370370
        k(   67) = (   0.3333333  -0.5773503  -0.1235519), wk =   0.0185185
        k(   68) = (   0.3333333  -0.5773503  -0.2471038), wk =   0.0185185

     Check: negative core charge=   -0.000014

     Initial potential from superposition of free atoms

     starting charge      95.0981, renormalised to      96.0000
     Starting wfcs are   63 randomized atomic wfcs
     Checking if some PAW data can be deallocated...

     Self-consistent Calculation

     iteration #  1     ecut=    60.00 Ry     beta= 0.70
     Davidson diagonalization with overlap
     ethr =  1.00E-02,  avg # of iterations =  2.0

     total energy              =    -778.67802676 Ry
     estimated scf accuracy    <       3.42272942 Ry

[...]

     End of self-consistent calculation

          k = 0.0000 0.0000 0.0000 (  9177 PWs)   bands (ev):

   -67.5131 -67.5081 -67.5081 -34.3166 -34.3166 -34.3156 -34.3120 -34.2978
   -34.2903 -34.2903 -34.2728 -34.2728 -16.1643 -14.4687 -14.4683 -13.7528
   -13.2878 -13.1676 -13.1248 -12.7410 -12.7410  -5.7374  -2.0972  -2.0971
    -2.0615  -1.5548  -1.0645  -1.0644  -0.7053  -0.1352   0.5229   0.5230
     0.9740   0.9740   1.7007   1.7008   1.8072   2.1060   2.1061   2.5571
     2.5847   2.7383   2.7383   2.8521   3.3899   3.3899   4.1615   4.1615

[...]

          k =-0.1667 0.0962 0.0000 (  9115 PWs)   bands (ev):

[...]

     highest occupied level (ev):     4.1640

!    total energy              =    -780.26634120 Ry
     estimated scf accuracy    <       0.00000045 Ry

     The total energy is the sum of the following terms:
     one-electron contribution =    -521.39426789 Ry
     hartree contribution      =     297.30087019 Ry
     xc contribution           =    -134.73970457 Ry
     ewald contribution        =    -335.78159238 Ry
     DFT-D3 Dispersion         =      -0.14612054 Ry
     one-center paw contrib.   =     -85.50552601 Ry

     convergence has been achieved in  10 iterations

     Forces acting on atoms (cartesian axes, Ry/au):

     atom    1 type  1   force =     0.00004564   -0.00002736   -0.00734270
     atom    2 type  1   force =    -0.00004652    0.00002584   -0.00734270
     atom    3 type  2   force =    -0.00013305    0.00000009    0.00093666
     atom    4 type  2   force =     0.00006661   -0.00011518    0.00093666
     atom    5 type  2   force =     0.00006667    0.00011547    0.00093356
     atom    6 type  3   force =     0.00000571   -0.00000323    0.00449774
     atom    7 type  3   force =    -0.00000566    0.00000333    0.00449774
     atom    8 type  3   force =     0.00028197   -0.00000164   -0.00266479
     atom    9 type  3   force =    -0.00014240    0.00024337   -0.00266479
     atom   10 type  3   force =    -0.00013919   -0.00024109   -0.00263385
     atom   11 type  3   force =    -0.00101148   -0.00000028    0.02073619
     atom   12 type  3   force =     0.00050550   -0.00087611    0.02073619
     atom   13 type  3   force =     0.00050585    0.00087616    0.02073010
     atom   14 type  3   force =    -0.00000012   -0.00000021   -0.01889285
     atom   15 type  4   force =     0.00270194   -0.00000079   -0.01594816
     atom   16 type  4   force =    -0.00135165    0.00233955   -0.01594816
     atom   17 type  4   force =    -0.00134994   -0.00233817   -0.01594453
     atom   18 type  4   force =     0.00000014    0.00000024    0.01537768

     Total force =     0.053323     Total SCF correction =     0.001613

     BFGS Geometry Optimization
     Energy error            =      0.0E+00 Ry
     Gradient error          =      2.1E-02 Ry/Bohr

     number of scf cycles    =   1
     number of bfgs steps    =   0

     energy             new  =    -780.2663412035 Ry

     new trust radius        =       0.0207608455 bohr
     new conv_thr            =       0.0000010000 Ry

ATOMIC_POSITIONS (angstrom)
Si           -0.0000022286        3.0461065446        0.5129603905
Si            2.6380067646        1.5230513421        0.5129603905
Mg            1.7447588581        0.0000000495        3.2889655736
Mg           -0.8723793862        1.5110055194        3.2889655736
Mg            1.7656256441        3.0581533226        3.2889639369
O            -0.0000233559        3.0461193129        2.1120397782
O             2.6380283860        1.5230394296        2.1120397782
O             2.7558619948       -0.0000008669        7.0051196560
O            -1.3779317481        2.3866460634        7.0051196560
O             1.2600749517        2.1825138376        7.0051360272
O             3.5091721179       -0.0000001490        4.2607537852
O            -1.7545861880        3.0390321259        4.2607537852
O             0.8834189985        1.5301265898        4.2607505622
O            -0.0000000645       -0.0000001118        2.1334683784
H             3.4159051947       -0.0000004161        5.2152493297
H            -1.7079529576        2.9582604674        5.2152493297
H             0.9300529452        1.6108989547        5.2152512524
H             0.0000000738        0.0000001279        1.1786207191

     Writing config-only to output data dir ./lisa.save/
     NEW-OLD atomic charge density approx. for the potential

[...]

     Total force =     0.055592     Total SCF correction =     0.000808
     Energy error            =      7.0E-05 Ry
     Gradient error          =      2.1E-02 Ry/Bohr

[...]

     energy             old  =    -780.2663412035 Ry
     energy             new  =    -780.2664115051 Ry

     CASE: energy            _new < energy            _old

[...]

     Threshold (ethr) on eigenvalues was too large:
     Diagonalizing with lowered threshold

     Davidson diagonalization with overlap
     ethr =  7.53E-09,  avg # of iterations =  4.0

[...]

     number of scf cycles    =   8
     number of bfgs steps    =   7

     energy             old  =    -780.2673252534 Ry
     energy             new  =    -780.2673308718 Ry

     CASE: energy            _new < energy            _old

     new trust radius        =       0.0023197780 bohr
     new conv_thr            =       0.0000000100 Ry

ATOMIC_POSITIONS (angstrom)
Si            0.0000009819        3.0461050165        0.5057854666
Si            2.6380038360        1.5230533585        0.5057854666
Mg            1.7456147296       -0.0000002162        3.2943904799
Mg           -0.8728075520        1.5117465929        3.2943904799
Mg            1.7651981459        3.0574128740        3.2943877952
O             0.0000030768        3.0461044136        2.1045411756
O             2.6380022664        1.5230548713        2.1045411756
O             2.7560574276       -0.0000001738        6.9939893146
O            -1.3780288642        2.3868156597        6.9939893146
O             1.2599750655        2.1823408295        6.9939869850
O             3.5132221370       -0.0000003435        4.2632304686
O            -1.7566113660        3.0425394480        4.2632304686
O             0.8813947564        1.5266204995        4.2632296528
O             0.0000001673        0.0000002898        2.1375926112
H             3.4256207947       -0.0000015726        5.2288440831
H            -1.7128117592        2.9666738456        5.2288440831
H             0.9251957402        1.6024860288        5.2288429382
H             0.0000004168        0.0000007219        1.1727659431

     Writing config-only to output data dir ./lisa.save/
     NEW-OLD atomic charge density approx. for the potential

     Check: negative core charge=   -0.000014

     Self-consistent Calculation

[...]

     Threshold (ethr) on eigenvalues was too large:
     Diagonalizing with lowered threshold

     Davidson diagonalization with overlap
     ethr =  9.40E-10,  avg # of iterations =  5.0

[...]

     total energy              =    -780.26733761 Ry
     estimated scf accuracy    <       0.00000007 Ry

     iteration #  4     ecut=    60.00 Ry     beta= 0.70
     Davidson diagonalization with overlap
     ethr =  7.16E-11,  avg # of iterations =  3.1

     End of self-consistent calculation

[...]

          k =-0.3333 0.3849-0.3707 (  9090 PWs)   bands (ev):

[...]

          k = 0.3333-0.5774-0.2471 (  9090 PWs)   bands (ev):

   -67.5423 -67.5421 -67.5421 -34.3508 -34.3507 -34.3507 -34.3263 -34.3263
   -34.3214 -34.3188 -34.3120 -34.3119 -15.4438 -15.4438 -14.4944 -13.4085
   -13.3539 -13.3539 -12.9039 -12.8946 -12.8946  -3.8651  -3.8651  -1.7851
    -1.6587  -1.6587  -1.4225  -0.6286  -0.4411  -0.4411  -0.2785   0.6785
     0.9106   0.9106   1.4621   1.4621   1.9607   1.9607   2.1919   2.5500
     2.5697   2.5697   2.6550   3.1376   3.1376   3.7898   3.8457   3.8457

     highest occupied level (ev):     4.1641

!    total energy              =    -780.26733762 Ry
     estimated scf accuracy    <          4.8E-09 Ry

     The total energy is the sum of the following terms:
     one-electron contribution =    -517.47555350 Ry
     hartree contribution      =     295.30605178 Ry
     xc contribution           =    -134.73624046 Ry
     ewald contribution        =    -337.71081344 Ry
     DFT-D3 Dispersion         =      -0.14631971 Ry
     one-center paw contrib.   =     -85.50446229 Ry

     convergence has been achieved in   4 iterations

     Forces acting on atoms (cartesian axes, Ry/au):

     atom    1 type  1   force =    -0.00000107    0.00000043    0.00076810
     atom    2 type  1   force =     0.00000090   -0.00000072    0.00076810
     atom    3 type  2   force =    -0.00003233    0.00000029   -0.00015602
     atom    4 type  2   force =     0.00001642   -0.00002785   -0.00015602
     atom    5 type  2   force =     0.00001596    0.00002764   -0.00015551
     atom    6 type  3   force =    -0.00000092    0.00000043   -0.00034089
     atom    7 type  3   force =     0.00000084   -0.00000058   -0.00034089
     atom    8 type  3   force =    -0.00004190   -0.00000011    0.00003410
     atom    9 type  3   force =     0.00002086   -0.00003634    0.00003410
     atom   10 type  3   force =     0.00002125    0.00003681    0.00003382
     atom   11 type  3   force =    -0.00003667    0.00000010   -0.00004765
     atom   12 type  3   force =     0.00001842   -0.00003171   -0.00004765
     atom   13 type  3   force =     0.00001814    0.00003142   -0.00004788
     atom   14 type  3   force =     0.00000003    0.00000005    0.00052434
     atom   15 type  4   force =     0.00059719    0.00000009   -0.00043269
     atom   16 type  4   force =    -0.00029852    0.00051722   -0.00043269
     atom   17 type  4   force =    -0.00029861   -0.00051721   -0.00043219
     atom   18 type  4   force =     0.00000002    0.00000003    0.00042751

     Total force =     0.001897     Total SCF correction =     0.000070
     Energy error            =      6.8E-06 Ry
     Gradient error          =      7.7E-04 Ry/Bohr

     bfgs converged in   9 scf cycles and   8 bfgs steps
     (criteria: energy <  1.0E-04 Ry, force <  1.0E-03 Ry/Bohr)

     End of BFGS Geometry Optimization

     Final energy             =    -780.2673376228 Ry

     File ./lisa.bfgs deleted, as requested
Begin final coordinates

ATOMIC_POSITIONS (angstrom)
Si            0.0000009819        3.0461050165        0.5057854666
Si            2.6380038360        1.5230533585        0.5057854666
Mg            1.7456147296       -0.0000002162        3.2943904799
Mg           -0.8728075520        1.5117465929        3.2943904799
Mg            1.7651981459        3.0574128740        3.2943877952
O             0.0000030768        3.0461044136        2.1045411756
O             2.6380022664        1.5230548713        2.1045411756
O             2.7560574276       -0.0000001738        6.9939893146
O            -1.3780288642        2.3868156597        6.9939893146
O             1.2599750655        2.1823408295        6.9939869850
O             3.5132221370       -0.0000003435        4.2632304686
O            -1.7566113660        3.0425394480        4.2632304686
O             0.8813947564        1.5266204995        4.2632296528
O             0.0000001673        0.0000002898        2.1375926112
H             3.4256207947       -0.0000015726        5.2288440831
H            -1.7128117592        2.9666738456        5.2288440831
H             0.9251957402        1.6024860288        5.2288429382
H             0.0000004168        0.0000007219        1.1727659431
End final coordinates

     Writing all to output data dir ./lisa.save/

     General routines

     Parallel routines

   This run was terminated on:  18:34:25  12May2023

   JOB DONE.